Traveling Salesman Problem/TSP_generados/Aleatorio1621103300_8.tsp
NAME: Aleatorio1621103300_8.tsp
COMMENT: Randomly generated scenario
TYPE: TSP
DIMENSION: 8
EDGE_WEIGHT_TYPE: ATT
NODE_COORD_SECTION
1 32.01 9.58
2 13.97 16.2
3 37.03 48.82
4 12.94 44.68
5 11.92 16.87
6 11.7 18.75
7 44.9 37.77
8 3.13 38.63
