Traveling Salesman Problem/TSP_generados/Aleatorio1621103300_8.opt.tour
NAME: Aleatorio1621103300_8.opt.tour
COMMENT: Optimal solution for Aleatorio1621103300_8 (125.44643097273266)
TYPE: TOUR
DIMENSION: 8
TOUR_SECTION
1 2 5 6 8 4 3 7
-1
EOF
